\ENCODING=ISO-8859-1
\Problem name: resolve third problem

Maximize
 obj: lambda
Subject To
 c1: 0.00000163885852089152 lambda >= -3524.6482574951
 c2: 0.00000163885852089152 lambda >= -3524.6482574951
Bounds
      lambda Free
End
